Задача_максимизации_Гамильтониана-pulp.sol
Optimal - objective value 4829036.71529324
      0 C0000000               1                      -0
      1 C0000001               1                      -0
      2 C0000002               1                      -0
      3 C0000003               1                      -0
      4 C0000004               1                      -0
      5 C0000005               1                      -0
      6 C0000006               1                      -0
      7 C0000007               1                      -0
      8 C0000008               1                      -0
      9 C0000009               1                      -0
     10 C0000010               0                      -0
     11 C0000011               0                      -0
     12 C0000012               1                      -0
     13 C0000013               1                      -0
     14 C0000014               0                      -0
     15 C0000015               0                      -0
     16 C0000016               0                      -0
     17 C0000017               0                      -0
     18 C0000018               0                      -0
     19 C0000019               0              0.78390331
     20 C0000020               0                      -0
     21 C0000021               0                      -0
     22 C0000022               0                      -0
     23 C0000023               0                      -0
     24 C0000024               0                      -0
     25 C0000025               0                      -0
     26 C0000026               0                      -0
     27 C0000027               0                      -0
     28 C0000028               0                      -0
     29 C0000029               0                      -0
     30 C0000030               0                      -0
     31 C0000031               0                      -0
     32 C0000032               0                      -0
     33 C0000033               0                      -0
     34 C0000034               1                      -0
     35 C0000035               1                      -0
      0 X0000000               1                 1207256
      1 X0000001               0               1207256.8
      2 X0000002               0                       0
      3 X0000003               0                 1207256
      4 X0000004               0              0.78390331
      5 X0000005               0                 1207256
      6 X0000006               0              0.78390331
      7 X0000007               0                 1207256
      8 X0000008               0              0.78390331
      9 X0000009               1                 1207256
     10 X0000010               1              0.78390331
     11 X0000011               1              0.78390331
     12 X0000012               0               1207260.8
     13 X0000013               0              0.78390331
     14 X0000014               1               1207260.8
     15 X0000015               1              0.78390331
     16 X0000016               0               1207260.8
     17 X0000017               0              0.78390331
     18 X0000018               0               1207260.8
     19 X0000019               0              0.78390331
     20 X0000020               0               1207260.8
     21 X0000021               0              0.78390331
     22 X0000022               0                 1207256
     23 X0000023               0               1207260.8
     24 X0000024               0              0.78390331
     25 X0000025               0               1207260.8
     26 X0000026               0              0.78390331
     27 X0000027               1               1207260.8
     28 X0000028               1              0.78390331
     29 X0000029               0               1207260.8
     30 X0000030               0              0.78390331
     31 X0000031               0               1207260.8
     32 X0000032               0              0.78390331
     33 X0000033               0              0.78390331
     34 X0000034               0                 1207256
     35 X0000035               0              0.78390331
     36 X0000036               0                 1207256
     37 X0000037               0              0.78390331
     38 X0000038               0                 1207256
     39 X0000039               0              0.78390331
